(declare-fun a_ack!69 () (_ BitVec 64))
(declare-fun FPCHECK_FDIV_OVERFLOW ((_ FloatingPoint 11 53) (_ BitVec 64)) Bool)
(assert (not (fp.lt (fp.abs ((_ to_fp 11 53) a_ack!69))
            ((_ to_fp 11 53) #x3f20000000000000))))
(assert (FPCHECK_FDIV_OVERFLOW (fp.abs ((_ to_fp 11 53) a_ack!69)) #x3fe921fb54442d18))
